2 1
3 1
3 2
4 1
4 2
4 3
5 1
5 2
5 3
5 4
6 1
6 2
6 3
6 4
6 5
7 1
7 2
8 1
8 2
8 3
8 7
9 2
9 3
9 4
9 7
9 8
10 3
10 4
10 5
10 7
10 8
10 9
11 4
11 5
11 6
11 7
11 8
11 9
11 10
12 5
12 6
12 7
12 8
12 9
12 10
12 11
13 1
13 3
13 7
13 8
14 2
14 4
14 7
14 8
14 9
14 13
15 1
15 3
15 5
15 8
15 9
15 10
15 13
15 14
16 2
16 4
16 6
16 9
16 10
16 11
16 13
16 14
16 15
17 3
17 5
17 10
17 11
17 12
17 13
17 14
17 15
17 16
18 4
18 6
18 11
18 12
18 13
18 14
18 15
18 16
18 17
19 1
19 4
19 7
19 9
19 13
19 14
20 2
20 5
20 8
20 10
20 13
20 14
20 15
20 19
21 3
21 6
21 7
21 9
21 11
21 14
21 15
21 16
21 19
21 20
22 1
22 4
22 8
22 10
22 12
22 15
22 16
22 17
22 19
22 20
22 21
23 2
23 5
23 9
23 11
23 16
23 17
23 18
23 19
23 20
23 21
23 22
24 3
24 6
24 10
24 12
24 17
24 18
24 19
24 20
24 21
24 22
24 23
25 1
25 5
25 7
25 10
25 13
25 15
25 19
25 20
26 2
26 6
26 8
26 11
26 14
26 16
26 19
26 20
26 21
26 25
27 3
27 9
27 12
27 13
27 15
27 17
27 20
27 21
27 22
27 25
27 26
28 4
28 7
28 10
28 14
28 16
28 18
28 21
28 22
28 23
28 25
28 26
28 27
29 1
29 5
29 8
29 11
29 15
29 17
29 22
29 23
29 24
29 25
29 26
29 27
29 28
30 2
30 6
30 9
30 12
30 16
30 18
30 23
30 24
30 25
30 26
30 27
30 28
30 29
31 1
31 6
31 7
31 11
31 13
31 16
31 19
31 21
31 25
31 26
32 2
32 8
32 12
32 14
32 17
32 20
32 22
32 25
32 26
32 27
32 31
33 3
33 9
33 15
33 18
33 19
33 21
33 23
33 26
33 27
33 28
33 31
33 32
34 4
34 10
34 13
34 16
34 20
34 22
34 24
34 27
34 28
34 29
34 31
34 32
34 33
35 5
35 7
35 11
35 14
35 17
35 21
35 23
35 28
35 29
35 30
35 31
35 32
35 33
35 34
36 1
36 6
36 8
36 12
36 15
36 18
36 22
36 24
36 29
36 30
36 31
36 32
36 33
36 34
36 35
7